sat
(:max-memory         18.43
 :memory             18.33
 :nlsat-arith-var    4
 :nlsat-atoms        5
 :nlsat-bool-var     1
 :nlsat-clauses      5
 :nlsat-propagations 5
 :nlsat-stages       5
 :num-allocs         50103
 :rlimit-count       885
 :time               0.00
 :total-time         0.02)
